(declare-fun c () String)
(declare-fun g () String)
(declare-fun b () String)
(declare-fun d () String)
(declare-fun f () String)
(declare-fun h () String)
(assert (= (str.++ "b" f "b") g))
(assert (= h "a"))
(assert (= (str.++ g d c d f "a") b))

(check-sat)
